c generated by sgen
p cnf 69 148
-2 -3 -4 0
-1 -3 -4 0
-1 -2 -4 0
-1 -2 -3 0
-6 -7 -8 0
-5 -7 -8 0
-5 -6 -8 0
-5 -6 -7 0
-10 -11 -12 0
-9 -11 -12 0
-9 -10 -12 0
-9 -10 -11 0
-14 -15 -16 0
-13 -15 -16 0
-13 -14 -16 0
-13 -14 -15 0
-18 -19 -20 0
-17 -19 -20 0
-17 -18 -20 0
-17 -18 -19 0
-22 -23 -24 0
-21 -23 -24 0
-21 -22 -24 0
-21 -22 -23 0
-26 -27 -28 0
-25 -27 -28 0
-25 -26 -28 0
-25 -26 -27 0
-30 -31 -32 0
-29 -31 -32 0
-29 -30 -32 0
-29 -30 -31 0
-34 -35 -36 0
-33 -35 -36 0
-33 -34 -36 0
-33 -34 -35 0
-38 -39 -40 0
-37 -39 -40 0
-37 -38 -40 0
-37 -38 -39 0
-42 -43 -44 0
-41 -43 -44 0
-41 -42 -44 0
-41 -42 -43 0
-46 -47 -48 0
-45 -47 -48 0
-45 -46 -48 0
-45 -46 -47 0
-50 -51 -52 0
-49 -51 -52 0
-49 -50 -52 0
-49 -50 -51 0
-54 -55 -56 0
-53 -55 -56 0
-53 -54 -56 0
-53 -54 -55 0
-58 -59 -60 0
-57 -59 -60 0
-57 -58 -60 0
-57 -58 -59 0
-62 -63 -64 0
-61 -63 -64 0
-61 -62 -64 0
-61 -62 -63 0
-65 -66 -67 0
-65 -66 -68 0
-65 -66 -69 0
-65 -67 -68 0
-65 -67 -69 0
-65 -68 -69 0
-66 -67 -68 0
-66 -67 -69 0
-66 -68 -69 0
-67 -68 -69 0
21 10 14 0
69 10 14 0
69 21 14 0
69 21 10 0
49 8 65 0
33 8 65 0
33 49 65 0
33 49 8 0
2 68 45 0
26 68 45 0
26 2 45 0
26 2 68 0
36 55 29 0
47 55 29 0
47 36 29 0
47 36 55 0
12 64 44 0
20 64 44 0
20 12 44 0
20 12 64 0
58 11 31 0
25 11 31 0
25 58 31 0
25 58 11 0
63 28 53 0
13 28 53 0
13 63 53 0
13 63 28 0
32 66 43 0
37 66 43 0
37 32 43 0
37 32 66 0
51 40 19 0
4 40 19 0
4 51 19 0
4 51 40 0
42 54 24 0
3 54 24 0
3 42 24 0
3 42 54 0
7 46 9 0
39 46 9 0
39 7 9 0
39 7 46 0
57 67 56 0
17 67 56 0
17 57 56 0
17 57 67 0
22 52 48 0
61 52 48 0
61 22 48 0
61 22 52 0
23 35 38 0
27 35 38 0
27 23 38 0
27 23 35 0
16 30 5 0
18 30 5 0
18 16 5 0
18 16 30 0
41 60 15 0
50 60 15 0
50 41 15 0
50 41 60 0
6 59 62 0
6 59 1 0
6 59 34 0
6 62 1 0
6 62 34 0
6 1 34 0
59 62 1 0
59 62 34 0
59 1 34 0
62 1 34 0
